24
844709 1844400
36928 75605
649129 1344522
925892 1725990
475939 1029572
108733 223878
488034 935619
395701 725710
550693 1003949
509694 953278
440355 900820
49925 97657
100736 215673
79142 143729
152798 293251
88114 187454
941561 1696715
820124 1495747
827804 1589311
918561 1821594
261353 495147
573421 1250695
497161 970416
788062 1459955
5762284